(declare-fun temp126_1 () (_ BitVec 64))
(declare-fun var463492 () (_ BitVec 64))
(declare-fun var463495 () (_ BitVec 64))
(declare-fun temp126_2 () (_ BitVec 64))
(declare-fun temp126_3 () (_ BitVec 64))
(declare-fun var66283 () (_ BitVec 64))
(declare-fun k!0 () Bool)
(declare-fun ARGNAME_input_NAMEEND_NUMELEMENT () (_ BitVec 64))
(declare-fun temp126_4 () (_ BitVec 64))
(declare-fun var1705320 () (_ BitVec 64))
(declare-fun temp126_5 () (_ BitVec 64))
(declare-fun var1705322 () (_ BitVec 64))
(declare-fun var1705323 () (_ BitVec 64))
(declare-fun temp126_6 () (_ BitVec 64))
(declare-fun var1705324 () (_ BitVec 64))
(declare-fun temp126_7 () (_ BitVec 64))
(declare-fun var1705326 () (_ BitVec 64))
(declare-fun temp126_8 () (_ BitVec 64))
(declare-fun temp126_9 () (_ BitVec 64))
(declare-fun ARGNAME_num_classes_NAMEEND () (_ BitVec 64))
(declare-fun var66463 () (_ BitVec 64))
(declare-fun temp126_10 () (_ BitVec 64))
(declare-fun temp126_11 () (_ BitVec 64))
(declare-fun var66523 () (_ BitVec 64))
(declare-fun temp126_12 () (_ BitVec 64))
(declare-fun temp126_13 () (_ BitVec 64))
(declare-fun var66590 () (_ BitVec 64))
(declare-fun temp126_14 () (_ BitVec 64))
(declare-fun temp126_15 () (_ BitVec 64))
(declare-fun var2297878 () (_ BitVec 64))
(declare-fun var2297890 () (_ BitVec 64))
(assert (= temp126_1 #x0000000000000004))
(assert (= var463492 temp126_1))
(assert (= var463495 var463492))
(assert (= temp126_2 #x0000000000000000))
(assert (= var66283
   (ite (= ARGNAME_input_NAMEEND_NUMELEMENT temp126_2)
        #x0000000000000001
        #x0000000000000000)))
(assert (= temp126_3 #x0000000000000000))
(assert (= var66283 temp126_3))
(assert (= temp126_4 #x000000000000000b))
(assert (= var1705320 temp126_4))
(assert (= temp126_5 #x0000000000000000))
(assert (= var1705322
   (ite (= var1705320 temp126_5) #x0000000000000001 #x0000000000000000)))
(assert (= var1705323 var1705320))
(assert (= temp126_6 #xffffffffffffffff))
(assert (= var1705324 (bvadd var1705323 temp126_6)))
(assert (= temp126_7 #xffffffffffffffff))
(assert (= var1705326 (bvand var1705324 temp126_7)))
(assert (= temp126_8 #x0000000000000000))
(assert (= temp126_9 #xffffffffffffffff))
(assert (= var66463
   (ite (= ARGNAME_num_classes_NAMEEND temp126_9)
        #x0000000000000001
        #x0000000000000000)))
(assert (= temp126_10 #x0000000000000000))
(assert (= var66463 temp126_10))
(assert (= temp126_11 #x0000000000000000))
(assert (= var66523 temp126_11))
(assert (= temp126_12 #x0000000000000000))
(assert (= var66523 temp126_12))
(assert (= temp126_13 #x0000000000000001))
(assert (= var66590
   (ite (bvslt ARGNAME_num_classes_NAMEEND temp126_13)
        #x0000000000000001
        #x0000000000000000)))
(assert (= temp126_14 #x0000000000000000))
(assert (= var66590 temp126_14))
(assert (= temp126_15 #x0000000000000001))
(assert (= var2297878 temp126_15))
(assert (= var2297890 var2297878))
(model-add temp126_1 () (_ BitVec 64) #x0000000000000004)
(model-add var463492 () (_ BitVec 64) #x0000000000000004)
(model-add var463495 () (_ BitVec 64) #x0000000000000004)
(model-add temp126_2 () (_ BitVec 64) #x0000000000000000)
(model-add temp126_3 () (_ BitVec 64) #x0000000000000000)
(model-add var66283 () (_ BitVec 64) #x0000000000000000)
(model-del k!0)
(model-add ARGNAME_input_NAMEEND_NUMELEMENT
           ()
           (_ BitVec 64)
           (ite k!0 #x0000000000000000 (bvnot #x0000000000000000)))






